proyfinal/src/viki/013/andrea/andrea-localstore/experimentInOfficeAgust.take6/worker_6/3233a694-eaf3-40a5-b67f-58aa07abc23e.als.cnf.out
Reading from standard input... Use '--help' for help.
============================[ Problem Statistics ]=============================
|                                                                             |
|  Number of variables:         87638                                         |
|  Number of clauses:          161767                                         |
|  Parse time:                   0.04 s                                       |
|                                                                             |
============================[ Search Statistics ]==============================
| Conflicts |          ORIGINAL         |          LEARNT          | Progress |
|           |    Vars  Clauses Literals |    Limit  Clauses Lit/Cl |          |
===============================================================================
|       100 |   65191   115688   287660 |    42418      100      9 | 25.613 % |
|       250 |   65191   115688   287660 |    46660      250     63 | 25.613 % |
|       475 |   65190   115644   287570 |    51326      473     56 | 25.614 % |
|       812 |   65190   115644   287570 |    56459      810     77 | 25.614 % |
|      1318 |   65190   115644   287570 |    62105     1316     72 | 25.614 % |
|      2077 |   65171   115568   287394 |    68316     2022     63 | 25.636 % |
|      3216 |   65171   115568   287394 |    75147     3161     59 | 25.636 % |
|      4924 |   65152   115479   287183 |    82662     4866     60 | 25.658 % |
|      7486 |   65132   115401   287000 |    90928     6187     61 | 25.681 % |
|     11330 |   63035   107490   267315 |   100021     9680     62 | 28.073 % |
===============================================================================
restarts              : 60
conflicts             : 13343          (9423 /sec)
decisions             : 46174          (0.00 % random) (32610 /sec)
propagations          : 19818994       (13997087 /sec)
conflict literals     : 800817         (49.23 % deleted)
Memory used           : 33.03 MB
CPU time              : 1.41594 s

UNSATISFIABLE
